NAME : sample
COMMENT : 10 city sample problem
TYPE : TSP
DIMENSION : 10
EDGE_WEIGHT_TYPE : EXPLICIT
EDGE_WEIGHT_FORMAT : FULL_MATRIX
EDGE_WEIGHT_SECTION
0 92 98 80 33 66 39 95 100 10
13 0 82 16 62 70 35 29 78 25
86 23 0 45 73 79 85 87 24 16
68 30 27 0 92 99 54 70 64 30
34 53 56 53 0 50 22 20 31 63
35 58 37 86 45 0 81 79 13 87
42 58 68 39 52 19 0 25 94 69
21 100 87 81 37 81 52 0 78 75
89 88 45 96 84 57 28 56 0 49
22 24 62 46 84 19 42 85 90 0
EOF
